data;

set A := 583640105 188324208 47550375 42388782 512462770 906025283 218256707 257788116 272518047 66087913 869242378 498161520 585852569 757530971 894016037 73443044 596125019 196303088 70882545 708639889;
param T := 5000000000;

end;
